%BLOCK lattice_cart
   12.3642446898   -7.1385000000    0.0000000000
    0.0000000000   14.2770000000    0.0000000000
    0.0000000000    0.0000000000   27.5000000000
%ENDBLOCK lattice_cart

%BLOCK species_pot
Al Al_00.usp
O  O_00.usp
%ENDBLOCK species_pot

%BLOCK positions_frac
Al    0.0000000000    0.0000000000    0.6938848000
Al    0.0000000000    0.0000000000    0.5975152000
Al    0.2222222222    0.1111111111    0.6151514667
Al    0.1111111111    0.2222222222    0.6762485333
Al    0.2222222222    0.1111111111    0.7549818667
Al    0.1111111111    0.2222222222    0.7726181333
Al    0.2222222222    0.1111111111    0.9911818667
Al    0.1111111111    0.2222222222    0.5364181333
Al    0.0000000000    0.0000000000    0.8337152000
Al    0.2222222222    0.1111111111    0.8513514667
Al    0.0000000000    0.0000000000    0.9300848000
Al    0.1111111111    0.2222222222    0.9124485333
Al    0.0000000000    0.3333333333    0.6938848000
Al    0.0000000000    0.3333333333    0.5975152000
Al    0.2222222222    0.4444444444    0.6151514667
Al    0.1111111111    0.5555555556    0.6762485333
Al    0.2222222222    0.4444444444    0.7549818667
Al    0.1111111111    0.5555555556    0.7726181333
Al    0.2222222222    0.4444444444    0.9911818667
Al    0.1111111111    0.5555555556    0.5364181333
Al    0.0000000000    0.3333333333    0.8337152000
Al    0.2222222222    0.4444444444    0.8513514667
Al    0.0000000000    0.3333333333    0.9300848000
Al    0.1111111111    0.5555555556    0.9124485333
Al    0.0000000000    0.6666666667    0.6938848000
Al    0.0000000000    0.6666666667    0.5975152000
Al    0.2222222222    0.7777777778    0.6151514667
Al    0.1111111111    0.8888888889    0.6762485333
Al    0.2222222222    0.7777777778    0.7549818667
Al    0.1111111111    0.8888888889    0.7726181333
Al    0.2222222222    0.7777777778    0.9911818667
Al    0.1111111111    0.8888888889    0.5364181333
Al    0.0000000000    0.6666666667    0.8337152000
Al    0.2222222222    0.7777777778    0.8513514667
Al    0.0000000000    0.6666666667    0.9300848000
Al    0.1111111111    0.8888888889    0.9124485333
Al    0.3333333333    0.0000000000    0.6938848000
Al    0.3333333333    0.0000000000    0.5975152000
Al    0.5555555556    0.1111111111    0.6151514667
Al    0.4444444444    0.2222222222    0.6762485333
Al    0.5555555556    0.1111111111    0.7549818667
Al    0.4444444444    0.2222222222    0.7726181333
Al    0.5555555556    0.1111111111    0.9911818667
Al    0.4444444444    0.2222222222    0.5364181333
Al    0.3333333333    0.0000000000    0.8337152000
Al    0.5555555556    0.1111111111    0.8513514667
Al    0.3333333333    0.0000000000    0.9300848000
Al    0.4444444444    0.2222222222    0.9124485333
Al    0.3333333333    0.3333333333    0.6938848000
Al    0.3333333333    0.3333333333    0.5975152000
Al    0.5555555556    0.4444444444    0.6151514667
Al    0.4444444444    0.5555555556    0.6762485333
Al    0.5555555556    0.4444444444    0.7549818667
Al    0.4444444444    0.5555555556    0.7726181333
Al    0.5555555556    0.4444444444    0.9911818667
Al    0.4444444444    0.5555555556    0.5364181333
Al    0.3333333333    0.3333333333    0.8337152000
Al    0.5555555556    0.4444444444    0.8513514667
Al    0.3333333333    0.3333333333    0.9300848000
Al    0.4444444444    0.5555555556    0.9124485333
Al    0.3333333333    0.6666666667    0.6938848000
Al    0.3333333333    0.6666666667    0.5975152000
Al    0.5555555556    0.7777777778    0.6151514667
Al    0.4444444444    0.8888888889    0.6762485333
Al    0.5555555556    0.7777777778    0.7549818667
Al    0.4444444444    0.8888888889    0.7726181333
Al    0.5555555556    0.7777777778    0.9911818667
Al    0.4444444444    0.8888888889    0.5364181333
Al    0.3333333333    0.6666666667    0.8337152000
Al    0.5555555556    0.7777777778    0.8513514667
Al    0.3333333333    0.6666666667    0.9300848000
Al    0.4444444444    0.8888888889    0.9124485333
Al    0.6666666667    0.0000000000    0.6938848000
Al    0.6666666667    0.0000000000    0.5975152000
Al    0.8888888889    0.1111111111    0.6151514667
Al    0.7777777778    0.2222222222    0.6762485333
Al    0.8888888889    0.1111111111    0.7549818667
Al    0.7777777778    0.2222222222    0.7726181333
Al    0.8888888889    0.1111111111    0.9911818667
Al    0.7777777778    0.2222222222    0.5364181333
Al    0.6666666667    0.0000000000    0.8337152000
Al    0.8888888889    0.1111111111    0.8513514667
Al    0.6666666667    0.0000000000    0.9300848000
Al    0.7777777778    0.2222222222    0.9124485333
Al    0.6666666667    0.3333333333    0.6938848000
Al    0.6666666667    0.3333333333    0.5975152000
Al    0.8888888889    0.4444444444    0.6151514667
Al    0.7777777778    0.5555555556    0.6762485333
Al    0.8888888889    0.4444444444    0.7549818667
Al    0.7777777778    0.5555555556    0.7726181333
Al    0.8888888889    0.4444444444    0.9911818667
Al    0.7777777778    0.5555555556    0.5364181333
Al    0.6666666667    0.3333333333    0.8337152000
Al    0.8888888889    0.4444444444    0.8513514667
Al    0.6666666667    0.3333333333    0.9300848000
Al    0.7777777778    0.5555555556    0.9124485333
Al    0.6666666667    0.6666666667    0.6938848000
Al    0.6666666667    0.6666666667    0.5975152000
Al    0.8888888889    0.7777777778    0.6151514667
Al    0.7777777778    0.8888888889    0.6762485333
Al    0.8888888889    0.7777777778    0.7549818667
Al    0.7777777778    0.8888888889    0.7726181333
Al    0.8888888889    0.7777777778    0.9911818667
Al    0.7777777778    0.8888888889    0.5364181333
Al    0.6666666667    0.6666666667    0.8337152000
Al    0.8888888889    0.7777777778    0.8513514667
Al    0.6666666667    0.6666666667    0.9300848000
Al    0.7777777778    0.8888888889    0.9124485333
O    0.1020000000    0.0000000000    0.6457000000
O    0.0000000000    0.1020000000    0.6457000000
O    0.2313333333    0.2313333333    0.6457000000
O    0.0091111111    0.2222222222    0.7244333333
O    0.1111111111    0.1202222222    0.7244333333
O    0.2131111111    0.3242222222    0.7244333333
O    0.1202222222    0.1111111111    0.5669666667
O    0.2222222222    0.0091111111    0.5669666667
O    0.3242222222    0.2131111111    0.5669666667
O    0.3242222222    0.1111111111    0.8031666667
O    0.2222222222    0.2131111111    0.8031666667
O    0.1202222222    0.0091111111    0.8031666667
O    0.2131111111    0.2222222222    0.9606333333
O    0.1111111111    0.3242222222    0.9606333333
O    0.0091111111    0.1202222222    0.9606333333
O    0.2313333333    0.0000000000    0.8819000000
O    0.0000000000    0.2313333333    0.8819000000
O    0.1020000000    0.1020000000    0.8819000000
O    0.1020000000    0.3333333333    0.6457000000
O    0.0000000000    0.4353333333    0.6457000000
O    0.2313333333    0.5646666667    0.6457000000
O    0.0091111111    0.5555555556    0.7244333333
O    0.1111111111    0.4535555556    0.7244333333
O    0.2131111111    0.6575555556    0.7244333333
O    0.1202222222    0.4444444444    0.5669666667
O    0.2222222222    0.3424444444    0.5669666667
O    0.3242222222    0.5464444444    0.5669666667
O    0.3242222222    0.4444444444    0.8031666667
O    0.2222222222    0.5464444444    0.8031666667
O    0.1202222222    0.3424444444    0.8031666667
O    0.2131111111    0.5555555556    0.9606333333
O    0.1111111111    0.6575555556    0.9606333333
O    0.0091111111    0.4535555556    0.9606333333
O    0.2313333333    0.3333333333    0.8819000000
O    0.0000000000    0.5646666667    0.8819000000
O    0.1020000000    0.4353333333    0.8819000000
O    0.1020000000    0.6666666667    0.6457000000
O    0.0000000000    0.7686666667    0.6457000000
O    0.2313333333    0.8980000000    0.6457000000
O    0.0091111111    0.8888888889    0.7244333333
O    0.1111111111    0.7868888889    0.7244333333
O    0.2131111111    0.9908888889    0.7244333333
O    0.1202222222    0.7777777778    0.5669666667
O    0.2222222222    0.6757777778    0.5669666667
O    0.3242222222    0.8797777778    0.5669666667
O    0.3242222222    0.7777777778    0.8031666667
O    0.2222222222    0.8797777778    0.8031666667
O    0.1202222222    0.6757777778    0.8031666667
O    0.2131111111    0.8888888889    0.9606333333
O    0.1111111111    0.9908888889    0.9606333333
O    0.0091111111    0.7868888889    0.9606333333
O    0.2313333333    0.6666666667    0.8819000000
O    0.0000000000    0.8980000000    0.8819000000
O    0.1020000000    0.7686666667    0.8819000000
O    0.4353333333    0.0000000000    0.6457000000
O    0.3333333333    0.1020000000    0.6457000000
O    0.5646666667    0.2313333333    0.6457000000
O    0.3424444444    0.2222222222    0.7244333333
O    0.4444444444    0.1202222222    0.7244333333
O    0.5464444444    0.3242222222    0.7244333333
O    0.4535555556    0.1111111111    0.5669666667
O    0.5555555556    0.0091111111    0.5669666667
O    0.6575555556    0.2131111111    0.5669666667
O    0.6575555556    0.1111111111    0.8031666667
O    0.5555555556    0.2131111111    0.8031666667
O    0.4535555556    0.0091111111    0.8031666667
O    0.5464444444    0.2222222222    0.9606333333
O    0.4444444444    0.3242222222    0.9606333333
O    0.3424444444    0.1202222222    0.9606333333
O    0.5646666667    0.0000000000    0.8819000000
O    0.3333333333    0.2313333333    0.8819000000
O    0.4353333333    0.1020000000    0.8819000000
O    0.4353333333    0.3333333333    0.6457000000
O    0.3333333333    0.4353333333    0.6457000000
O    0.5646666667    0.5646666667    0.6457000000
O    0.3424444444    0.5555555556    0.7244333333
O    0.4444444444    0.4535555556    0.7244333333
O    0.5464444444    0.6575555556    0.7244333333
O    0.4535555556    0.4444444444    0.5669666667
O    0.5555555556    0.3424444444    0.5669666667
O    0.6575555556    0.5464444444    0.5669666667
O    0.6575555556    0.4444444444    0.8031666667
O    0.5555555556    0.5464444444    0.8031666667
O    0.4535555556    0.3424444444    0.8031666667
O    0.5464444444    0.5555555556    0.9606333333
O    0.4444444444    0.6575555556    0.9606333333
O    0.3424444444    0.4535555556    0.9606333333
O    0.5646666667    0.3333333333    0.8819000000
O    0.3333333333    0.5646666667    0.8819000000
O    0.4353333333    0.4353333333    0.8819000000
O    0.4353333333    0.6666666667    0.6457000000
O    0.3333333333    0.7686666667    0.6457000000
O    0.5646666667    0.8980000000    0.6457000000
O    0.3424444444    0.8888888889    0.7244333333
O    0.4444444444    0.7868888889    0.7244333333
O    0.5464444444    0.9908888889    0.7244333333
O    0.4535555556    0.7777777778    0.5669666667
O    0.5555555556    0.6757777778    0.5669666667
O    0.6575555556    0.8797777778    0.5669666667
O    0.6575555556    0.7777777778    0.8031666667
O    0.5555555556    0.8797777778    0.8031666667
O    0.4535555556    0.6757777778    0.8031666667
O    0.5464444444    0.8888888889    0.9606333333
O    0.4444444444    0.9908888889    0.9606333333
O    0.3424444444    0.7868888889    0.9606333333
O    0.5646666667    0.6666666667    0.8819000000
O    0.3333333333    0.8980000000    0.8819000000
O    0.4353333333    0.7686666667    0.8819000000
O    0.7686666667    0.0000000000    0.6457000000
O    0.6666666667    0.1020000000    0.6457000000
O    0.8980000000    0.2313333333    0.6457000000
O    0.6757777778    0.2222222222    0.7244333333
O    0.7777777778    0.1202222222    0.7244333333
O    0.8797777778    0.3242222222    0.7244333333
O    0.7868888889    0.1111111111    0.5669666667
O    0.8888888889    0.0091111111    0.5669666667
O    0.9908888889    0.2131111111    0.5669666667
O    0.9908888889    0.1111111111    0.8031666667
O    0.8888888889    0.2131111111    0.8031666667
O    0.7868888889    0.0091111111    0.8031666667
O    0.8797777778    0.2222222222    0.9606333333
O    0.7777777778    0.3242222222    0.9606333333
O    0.6757777778    0.1202222222    0.9606333333
O    0.8980000000    0.0000000000    0.8819000000
O    0.6666666667    0.2313333333    0.8819000000
O    0.7686666667    0.1020000000    0.8819000000
O    0.7686666667    0.3333333333    0.6457000000
O    0.6666666667    0.4353333333    0.6457000000
O    0.8980000000    0.5646666667    0.6457000000
O    0.6757777778    0.5555555556    0.7244333333
O    0.7777777778    0.4535555556    0.7244333333
O    0.8797777778    0.6575555556    0.7244333333
O    0.7868888889    0.4444444444    0.5669666667
O    0.8888888889    0.3424444444    0.5669666667
O    0.9908888889    0.5464444444    0.5669666667
O    0.9908888889    0.4444444444    0.8031666667
O    0.8888888889    0.5464444444    0.8031666667
O    0.7868888889    0.3424444444    0.8031666667
O    0.8797777778    0.5555555556    0.9606333333
O    0.7777777778    0.6575555556    0.9606333333
O    0.6757777778    0.4535555556    0.9606333333
O    0.8980000000    0.3333333333    0.8819000000
O    0.6666666667    0.5646666667    0.8819000000
O    0.7686666667    0.4353333333    0.8819000000
O    0.7686666667    0.6666666667    0.6457000000
O    0.6666666667    0.7686666667    0.6457000000
O    0.8980000000    0.8980000000    0.6457000000
O    0.6757777778    0.8888888889    0.7244333333
O    0.7777777778    0.7868888889    0.7244333333
O    0.8797777778    0.9908888889    0.7244333333
O    0.7868888889    0.7777777778    0.5669666667
O    0.8888888889    0.6757777778    0.5669666667
O    0.9908888889    0.8797777778    0.5669666667
O    0.9908888889    0.7777777778    0.8031666667
O    0.8888888889    0.8797777778    0.8031666667
O    0.7868888889    0.6757777778    0.8031666667
O    0.8797777778    0.8888888889    0.9606333333
O    0.7777777778    0.9908888889    0.9606333333
O    0.6757777778    0.7868888889    0.9606333333
O    0.8980000000    0.6666666667    0.8819000000
O    0.6666666667    0.8980000000    0.8819000000
O    0.7686666667    0.7686666667    0.8819000000
%ENDBLOCK positions_frac

%BLOCK kpoints_list 
    0.2500000000    0.2500000000    0.0000000000    0.5000000000
    0.2500000000   -0.2500000000    0.0000000000    0.5000000000
%ENDBLOCK kpoints_list
