########################################################
# 3 parameters can be changed easily:                  #
#  1) Dipole moment (in fix dipole)                    #
#  2) Temperature (in start velocity and fix langevin) #
#  3) Electric field (in fix efield)                   #
#                                                      #
# Note that LAMMPS uses electric dipoles & fields.     #
# These are exactly equivalent to magnetic dipoles and #
# fields. If a certain dipole magnitude and field      #
# magnitude is asked, put these numbers in.            #
########################################################

# Point dipoles in a 2d box

units		lj
atom_style	hybrid sphere dipole
dimension	3
boundary	p p p

lattice		sc 0.200
region		box block 0 400 0 400 0 400
create_box	1 box
create_atoms	1 box

# need both mass settings due to hybrid atom style

mass		1 1.0
set		group all mass 1.0

########################################################
# Dipole moment mu is the last number of this command: #
########################################################

#set		group all dipole 0.0 0.0 1.7302508
set		group all dipole/random 15158934 0.7071068

########################################################
# Temperature T is the first number of this command:   #
########################################################

velocity	all create 1.00 87287 mom no

#pair_style	lj/cut/dipole/long 1.1224620 5.633336
#kspace_style	ewald/disp 0.01
pair_style	lj/cut/dipole/cut  1.1224620 0.000000
pair_coeff	* * 1.0 1.0

neighbor	0.3 bin
neigh_modify	delay 0

fix             1 all nve/sphere update dipole

#################################################################
# Temperature T needs to be changed in the Langevin thermostat: #
#################################################################

fix		2 all langevin 1.0 1.0 0.05 668799 omega yes
fix             lin_mom all momentum 1 linear 1 1 1

###################################################
# E-field command. Fields are in x y z direction: #
###################################################

#fix		3 all efield 0.0 0.0 0.0

timestep	0.002

compute		erot all erotate/sphere
thermo_style	custom step cpu # temp etotal epair ke c_erot press density
thermo		100

run		250000

dump		1 all custom 5 dump.dipole.lammpstrj id type x y z mux muy muz
dump_modify	1 sort id

#dump		1 all image 250 image.*.jpg mux type &
#		zoom 1.6 adiam 1.2
#dump_modify	1 pad 5

#run		500000

